M = 8;
N = 12;
E = 110;
l = [200, 180, 160, 185, 180, 200, 160, 200];
p = [10, 25, 18, 16, 14, 16, 24, 19, 23, 19];
from = [11, 11, 11, 11, 11, 11, 11, 11, 11, 11, 1, 1, 1, 1, 1, 1, 1, 1, 1, 1, 2, 2, 2, 2, 2, 2, 2, 2, 2, 2, 3, 3, 3, 3, 3, 3, 3, 3, 3, 3, 4, 4, 4, 4, 4, 4, 4, 4, 4, 4, 5, 5, 5, 5, 5, 5, 5, 5, 5, 5, 6, 6, 6, 6, 6, 6, 6, 6, 6, 6, 7, 7, 7, 7, 7, 7, 7, 7, 7, 7, 8, 8, 8, 8, 8, 8, 8, 8, 8, 8, 9, 9, 9, 9, 9, 9, 9, 9, 9, 9, 10, 10, 10, 10, 10, 10, 10, 10, 10, 10];
to = [1, 2, 3, 4, 5, 6, 7, 8, 9, 10, 2, 3, 4, 5, 6, 7, 8, 9, 10, 12, 1, 3, 4, 5, 6, 7, 8, 9, 10, 12, 1, 2, 4, 5, 6, 7, 8, 9, 10, 12, 1, 2, 3, 5, 6, 7, 8, 9, 10, 12, 1, 2, 3, 4, 6, 7, 8, 9, 10, 12, 1, 2, 3, 4, 5, 7, 8, 9, 10, 12, 1, 2, 3, 4, 5, 6, 8, 9, 10, 12, 1, 2, 3, 4, 5, 6, 7, 9, 10, 12, 1, 2, 3, 4, 5, 6, 7, 8, 10, 12, 1, 2, 3, 4, 5, 6, 7, 8, 9, 12];
w = [53, 24, 55, 54, 38, 75, 63, 110, 17, 40, 56, 86, 77, 81, 128, 107, 154, 70, 93, 53, 56, 79, 31, 62, 87, 61, 107, 37, 37, 24, 86, 79, 109, 17, 43, 110, 68, 43, 69, 55, 87, 31, 109, 92, 116, 30, 77, 66, 40, 55, 81, 62, 17, 92, 47, 93, 82, 26, 52, 38, 128, 87, 43, 116, 47, 117, 52, 58, 76, 75, 116, 61, 110, 30, 93, 117, 65, 67, 41, 63, 163, 107, 78, 77, 82, 52, 65, 93, 70, 110, 70, 41, 43, 66, 26, 73, 67, 93, 26, 17, 93, 37, 69, 40, 52, 76, 41, 70, 26, 40];
